c FILE: i160-005

c SOURCE: From steinlib

c DESCRIPTION: Steinlib instance with 160 nodes and 240 edges.

p edge 160 240
e 1 11
e 1 46
e 1 80
e 1 95
e 1 138
e 1 148
e 2 20
e 2 50
e 2 98
e 3 36
e 3 46
e 3 106
e 3 108
e 3 134
e 3 149
e 4 71
e 4 91
e 5 53
e 5 80
e 5 150
e 6 64
e 7 60
e 7 148
e 8 11
e 8 43
e 9 114
e 10 87
e 10 106
e 10 126
e 11 52
e 11 88
e 11 99
e 12 57
e 12 65
e 12 155
e 13 27
e 13 144
e 14 27
e 14 131
e 15 22
e 15 59
e 15 92
e 16 92
e 16 134
e 16 150
e 17 112
e 17 140
e 18 70
e 18 123
e 18 142
e 19 41
e 19 84
e 19 147
e 20 78
e 20 96
e 21 41
e 21 149
e 22 47
e 22 59
e 22 104
e 23 106
e 23 129
e 23 153
e 24 26
e 24 30
e 24 54
e 24 95
e 24 105
e 24 113
e 24 130
e 25 93
e 25 130
e 26 126
e 27 29
e 27 39
e 27 94
e 27 130
e 28 140
e 28 151
e 29 98
e 30 46
e 30 63
e 30 79
e 31 84
e 31 123
e 32 46
e 32 157
e 32 158
e 33 40
e 33 44
e 33 130
e 34 49
e 34 64
e 34 124
e 34 156
e 35 136
e 35 149
e 36 90
e 36 149
e 37 87
e 37 135
e 38 90
e 38 134
e 39 45
e 39 94
e 39 95
e 39 107
e 41 89
e 42 128
e 43 44
e 43 45
e 44 79
e 44 149
e 45 116
e 45 130
e 46 106
e 46 126
e 47 59
e 47 96
e 48 62
e 48 142
e 48 157
e 49 74
e 49 130
e 49 151
e 50 60
e 51 93
e 51 105
e 51 159
e 52 78
e 52 143
e 54 72
e 54 140
e 54 144
e 55 80
e 55 117
e 56 140
e 57 92
e 58 154
e 59 106
e 60 87
e 60 142
e 61 144
e 62 65
e 62 122
e 63 79
e 63 128
e 64 130
e 64 146
e 65 105
e 66 145
e 67 77
e 67 92
e 67 109
e 68 85
e 69 138
e 71 126
e 71 140
e 71 145
e 72 96
e 72 154
e 73 158
e 74 97
e 74 101
e 74 154
e 75 109
e 75 132
e 75 151
e 76 78
e 76 120
e 77 85
e 77 100
e 77 130
e 79 159
e 80 147
e 81 85
e 81 112
e 81 129
e 82 87
e 82 141
e 83 95
e 83 124
e 84 110
e 84 158
e 85 92
e 85 95
e 86 102
e 86 115
e 87 110
e 88 116
e 88 151
e 89 101
e 89 118
e 90 105
e 92 157
e 94 120
e 95 100
e 98 146
e 99 112
e 100 127
e 102 140
e 103 115
e 104 160
e 105 137
e 106 115
e 106 127
e 107 122
e 108 145
e 109 141
e 109 152
e 110 140
e 110 142
e 111 160
e 112 143
e 112 155
e 113 150
e 114 149
e 115 118
e 116 148
e 118 154
e 119 148
e 121 151
e 123 129
e 125 135
e 125 140
e 126 131
e 126 143
e 126 150
e 126 160
e 128 153
e 129 153
e 129 158
e 131 156
e 132 137
e 133 144
e 136 141
e 137 147
e 139 157
e 142 158
e 142 160
